c Created with the Wolfram Language : www.wolfram.com
c 
p edge 100 1016
e 2 6
e 5 6
e 4 7
e 6 7
e 1 8
e 4 9
e 7 9
e 8 9
e 4 10
e 5 10
e 7 10
e 9 10
e 5 11
e 7 11
e 9 11
e 3 12
e 5 12
e 7 12
e 9 12
e 12 13
e 5 14
e 9 14
e 6 15
e 8 15
e 10 15
e 11 15
e 14 15
e 1 16
e 1 17
e 8 17
e 9 17
e 14 17
e 8 18
e 16 18
e 6 19
e 9 19
e 15 19
e 18 19
e 4 20
e 7 20
e 8 20
e 12 20
e 18 20
e 1 21
e 3 21
e 12 21
e 18 21
e 20 21
e 3 22
e 15 22
e 18 22
e 4 23
e 13 23
e 20 23
e 22 23
e 3 24
e 11 24
e 14 24
e 15 24
e 22 24
e 5 25
e 16 25
e 21 25
e 22 25
e 5 26
e 14 26
e 20 26
e 21 26
e 22 26
e 7 27
e 17 27
e 2 28
e 6 28
e 9 28
e 10 28
e 12 28
e 2 29
e 5 29
e 8 29
e 13 29
e 18 29
e 6 30
e 16 30
e 17 30
e 20 30
e 25 30
e 26 30
e 4 31
e 10 31
e 12 31
e 16 31
e 19 31
e 25 31
e 27 31
e 30 31
e 11 32
e 14 32
e 29 32
e 5 33
e 6 33
e 7 33
e 8 33
e 9 33
e 19 33
e 25 33
e 27 33
e 28 33
e 30 33
e 4 34
e 5 34
e 17 34
e 18 34
e 20 34
e 28 34
e 31 34
e 33 34
e 4 35
e 10 35
e 12 35
e 13 35
e 15 35
e 24 35
e 25 35
e 26 35
e 28 35
e 32 35
e 33 35
e 6 36
e 16 36
e 23 36
e 24 36
e 32 36
e 1 37
e 14 37
e 24 37
e 27 37
e 30 37
e 4 38
e 15 38
e 1 39
e 5 39
e 15 39
e 18 39
e 19 39
e 20 39
e 21 39
e 37 39
e 10 40
e 12 40
e 16 40
e 24 40
e 6 41
e 8 41
e 12 41
e 14 41
e 17 41
e 25 41
e 28 41
e 30 41
e 37 41
e 3 42
e 5 42
e 11 42
e 20 42
e 23 42
e 26 42
e 28 42
e 15 43
e 21 43
e 24 43
e 36 43
e 39 43
e 42 43
e 14 44
e 23 44
e 24 44
e 34 44
e 40 44
e 41 44
e 43 44
e 3 45
e 8 45
e 9 45
e 14 45
e 21 45
e 27 45
e 34 45
e 40 45
e 10 46
e 15 46
e 16 46
e 22 46
e 26 46
e 27 46
e 31 46
e 32 46
e 4 47
e 7 47
e 8 47
e 9 47
e 13 47
e 20 47
e 25 47
e 29 47
e 31 47
e 34 47
e 36 47
e 40 47
e 41 47
e 42 47
e 5 48
e 10 48
e 11 48
e 14 48
e 16 48
e 22 48
e 24 48
e 25 48
e 33 48
e 34 48
e 42 48
e 7 49
e 15 49
e 16 49
e 23 49
e 24 49
e 30 49
e 36 49
e 37 49
e 40 49
e 41 49
e 42 49
e 7 50
e 14 50
e 16 50
e 19 50
e 21 50
e 32 50
e 33 50
e 34 50
e 37 50
e 40 50
e 9 51
e 13 51
e 19 51
e 22 51
e 23 51
e 27 51
e 42 51
e 43 51
e 45 51
e 46 51
e 5 52
e 10 52
e 17 52
e 21 52
e 28 52
e 29 52
e 32 52
e 34 52
e 43 52
e 47 52
e 49 52
e 3 53
e 6 53
e 12 53
e 15 53
e 24 53
e 29 53
e 36 53
e 42 53
e 46 53
e 49 53
e 10 54
e 14 54
e 19 54
e 23 54
e 32 54
e 36 54
e 38 54
e 39 54
e 40 54
e 43 54
e 44 54
e 51 54
e 10 55
e 15 55
e 18 55
e 20 55
e 21 55
e 22 55
e 26 55
e 29 55
e 47 55
e 48 55
e 53 55
e 5 56
e 6 56
e 7 56
e 10 56
e 18 56
e 21 56
e 24 56
e 37 56
e 38 56
e 43 56
e 47 56
e 50 56
e 52 56
e 53 56
e 10 57
e 12 57
e 13 57
e 22 57
e 31 57
e 36 57
e 43 57
e 52 57
e 56 57
e 4 58
e 13 58
e 23 58
e 24 58
e 34 58
e 37 58
e 48 58
e 50 58
e 54 58
e 55 58
e 57 58
e 3 59
e 4 59
e 5 59
e 12 59
e 24 59
e 28 59
e 32 59
e 35 59
e 39 59
e 41 59
e 48 59
e 49 59
e 51 59
e 53 59
e 9 60
e 10 60
e 14 60
e 22 60
e 30 60
e 35 60
e 44 60
e 45 60
e 46 60
e 50 60
e 58 60
e 59 60
e 1 61
e 8 61
e 17 61
e 21 61
e 24 61
e 38 61
e 39 61
e 41 61
e 45 61
e 49 61
e 53 61
e 1 62
e 6 62
e 10 62
e 12 62
e 15 62
e 20 62
e 24 62
e 25 62
e 26 62
e 28 62
e 32 62
e 33 62
e 37 62
e 40 62
e 42 62
e 43 62
e 11 63
e 16 63
e 22 63
e 24 63
e 26 63
e 33 63
e 34 63
e 41 63
e 43 63
e 51 63
e 58 63
e 59 63
e 60 63
e 12 64
e 14 64
e 22 64
e 28 64
e 32 64
e 39 64
e 43 64
e 44 64
e 49 64
e 55 64
e 58 64
e 1 65
e 12 65
e 26 65
e 28 65
e 32 65
e 36 65
e 39 65
e 53 65
e 54 65
e 62 65
e 63 65
e 1 66
e 4 66
e 8 66
e 12 66
e 15 66
e 18 66
e 20 66
e 21 66
e 22 66
e 24 66
e 25 66
e 33 66
e 47 66
e 52 66
e 54 66
e 55 66
e 8 67
e 12 67
e 15 67
e 29 67
e 34 67
e 35 67
e 37 67
e 41 67
e 47 67
e 59 67
e 60 67
e 64 67
e 66 67
e 4 68
e 5 68
e 12 68
e 16 68
e 17 68
e 18 68
e 19 68
e 29 68
e 49 68
e 50 68
e 51 68
e 66 68
e 16 69
e 25 69
e 27 69
e 28 69
e 29 69
e 34 69
e 41 69
e 52 69
e 64 69
e 6 70
e 16 70
e 17 70
e 24 70
e 26 70
e 27 70
e 28 70
e 29 70
e 32 70
e 35 70
e 44 70
e 48 70
e 60 70
e 61 70
e 62 70
e 64 70
e 69 70
e 8 71
e 10 71
e 12 71
e 14 71
e 16 71
e 31 71
e 34 71
e 40 71
e 44 71
e 46 71
e 47 71
e 49 71
e 50 71
e 55 71
e 56 71
e 57 71
e 58 71
e 69 71
e 9 72
e 12 72
e 15 72
e 16 72
e 18 72
e 23 72
e 32 72
e 34 72
e 44 72
e 49 72
e 52 72
e 55 72
e 65 72
e 68 72
e 15 73
e 21 73
e 22 73
e 25 73
e 28 73
e 36 73
e 40 73
e 44 73
e 49 73
e 60 73
e 63 73
e 66 73
e 68 73
e 3 74
e 6 74
e 10 74
e 12 74
e 19 74
e 25 74
e 26 74
e 34 74
e 35 74
e 38 74
e 39 74
e 42 74
e 44 74
e 45 74
e 48 74
e 50 74
e 67 74
e 68 74
e 69 74
e 4 75
e 9 75
e 14 75
e 24 75
e 27 75
e 28 75
e 30 75
e 44 75
e 51 75
e 53 75
e 56 75
e 61 75
e 62 75
e 67 75
e 70 75
e 1 76
e 9 76
e 10 76
e 17 76
e 20 76
e 22 76
e 25 76
e 27 76
e 53 76
e 57 76
e 61 76
e 63 76
e 69 76
e 1 77
e 2 77
e 6 77
e 9 77
e 11 77
e 15 77
e 22 77
e 34 77
e 35 77
e 49 77
e 53 77
e 57 77
e 58 77
e 62 77
e 67 77
e 14 78
e 15 78
e 16 78
e 19 78
e 24 78
e 26 78
e 32 78
e 33 78
e 35 78
e 38 78
e 41 78
e 42 78
e 46 78
e 51 78
e 53 78
e 54 78
e 59 78
e 63 78
e 65 78
e 66 78
e 75 78
e 76 78
e 77 78
e 3 79
e 4 79
e 6 79
e 12 79
e 15 79
e 16 79
e 19 79
e 20 79
e 34 79
e 39 79
e 40 79
e 50 79
e 51 79
e 57 79
e 62 79
e 65 79
e 2 80
e 8 80
e 9 80
e 10 80
e 13 80
e 18 80
e 19 80
e 20 80
e 21 80
e 34 80
e 40 80
e 44 80
e 50 80
e 53 80
e 56 80
e 62 80
e 64 80
e 68 80
e 5 81
e 6 81
e 9 81
e 12 81
e 15 81
e 24 81
e 26 81
e 42 81
e 43 81
e 60 81
e 77 81
e 6 82
e 12 82
e 14 82
e 19 82
e 25 82
e 26 82
e 46 82
e 50 82
e 58 82
e 60 82
e 61 82
e 63 82
e 67 82
e 69 82
e 70 82
e 72 82
e 1 83
e 6 83
e 22 83
e 31 83
e 33 83
e 38 83
e 48 83
e 65 83
e 70 83
e 74 83
e 82 83
e 16 84
e 17 84
e 24 84
e 29 84
e 30 84
e 33 84
e 34 84
e 39 84
e 41 84
e 56 84
e 59 84
e 70 84
e 71 84
e 72 84
e 74 84
e 76 84
e 77 84
e 83 84
e 2 85
e 6 85
e 10 85
e 11 85
e 12 85
e 15 85
e 16 85
e 18 85
e 19 85
e 20 85
e 28 85
e 35 85
e 40 85
e 43 85
e 45 85
e 46 85
e 53 85
e 59 85
e 60 85
e 65 85
e 68 85
e 72 85
e 73 85
e 2 86
e 13 86
e 18 86
e 30 86
e 33 86
e 39 86
e 40 86
e 58 86
e 68 86
e 73 86
e 74 86
e 85 86
e 2 87
e 12 87
e 18 87
e 19 87
e 23 87
e 30 87
e 36 87
e 37 87
e 40 87
e 44 87
e 58 87
e 64 87
e 73 87
e 2 88
e 10 88
e 15 88
e 21 88
e 23 88
e 24 88
e 29 88
e 31 88
e 34 88
e 38 88
e 39 88
e 41 88
e 48 88
e 51 88
e 57 88
e 58 88
e 59 88
e 63 88
e 65 88
e 71 88
e 9 89
e 10 89
e 12 89
e 13 89
e 15 89
e 19 89
e 21 89
e 29 89
e 41 89
e 46 89
e 50 89
e 60 89
e 63 89
e 70 89
e 75 89
e 76 89
e 78 89
e 4 90
e 12 90
e 24 90
e 38 90
e 49 90
e 53 90
e 55 90
e 68 90
e 75 90
e 83 90
e 84 90
e 88 90
e 89 90
e 5 91
e 8 91
e 12 91
e 15 91
e 16 91
e 22 91
e 24 91
e 26 91
e 31 91
e 35 91
e 38 91
e 43 91
e 45 91
e 50 91
e 57 91
e 79 91
e 84 91
e 87 91
e 89 91
e 2 92
e 5 92
e 11 92
e 16 92
e 21 92
e 25 92
e 28 92
e 29 92
e 40 92
e 43 92
e 44 92
e 51 92
e 53 92
e 54 92
e 60 92
e 61 92
e 64 92
e 65 92
e 72 92
e 73 92
e 76 92
e 81 92
e 84 92
e 85 92
e 86 92
e 87 92
e 89 92
e 90 92
e 91 92
e 2 93
e 3 93
e 12 93
e 24 93
e 28 93
e 31 93
e 35 93
e 37 93
e 44 93
e 46 93
e 50 93
e 52 93
e 58 93
e 60 93
e 63 93
e 70 93
e 72 93
e 74 93
e 77 93
e 81 93
e 87 93
e 3 94
e 6 94
e 15 94
e 17 94
e 19 94
e 24 94
e 38 94
e 42 94
e 59 94
e 62 94
e 77 94
e 78 94
e 81 94
e 86 94
e 89 94
e 90 94
e 2 95
e 10 95
e 11 95
e 14 95
e 17 95
e 18 95
e 23 95
e 27 95
e 31 95
e 36 95
e 41 95
e 50 95
e 54 95
e 55 95
e 73 95
e 74 95
e 79 95
e 81 95
e 88 95
e 90 95
e 1 96
e 4 96
e 5 96
e 8 96
e 13 96
e 14 96
e 15 96
e 20 96
e 23 96
e 24 96
e 27 96
e 34 96
e 42 96
e 46 96
e 48 96
e 52 96
e 53 96
e 60 96
e 61 96
e 73 96
e 75 96
e 88 96
e 93 96
e 95 96
e 9 97
e 10 97
e 13 97
e 15 97
e 16 97
e 19 97
e 22 97
e 24 97
e 26 97
e 28 97
e 36 97
e 39 97
e 41 97
e 46 97
e 49 97
e 50 97
e 53 97
e 55 97
e 56 97
e 58 97
e 61 97
e 62 97
e 73 97
e 76 97
e 82 97
e 86 97
e 87 97
e 95 97
e 6 98
e 7 98
e 19 98
e 29 98
e 31 98
e 40 98
e 48 98
e 50 98
e 54 98
e 64 98
e 69 98
e 85 98
e 1 99
e 5 99
e 9 99
e 11 99
e 20 99
e 26 99
e 27 99
e 38 99
e 39 99
e 47 99
e 49 99
e 64 99
e 65 99
e 68 99
e 75 99
e 78 99
e 85 99
e 86 99
e 87 99
e 92 99
e 97 99
e 98 99
e 5 100
e 13 100
e 14 100
e 17 100
e 18 100
e 19 100
e 27 100
e 29 100
e 32 100
e 39 100
e 42 100
e 43 100
e 49 100
e 56 100
e 59 100
e 70 100
e 75 100
e 78 100
e 80 100
e 81 100
e 92 100
e 93 100
